g3 1 1 0	# problem fx_10
 10 0 1 0 0	# vars, constraints, objectives, ranges, eqns
 0 1	# nonlinear constraints, objectives
 0 0	# network constraints: nonlinear, linear
 0 10 0	# nonlinear vars in constraints, objectives, both
 0 0 0 1	# linear network variables; functions; arith, flags
 0 0 0 0 0	# discrete variables: binary, integer, nonlinear (b,c,o)
 0 10	# nonzeros in Jacobian, gradients
 0 0	# max name lengths: constraints, variables
 0 0 0 0 0	# common exprs: b,c,o,c1,o1
O0 0
o16
o54
30
o3
n1
o54
11
o5
o1
v0
n9.681
n2
o5
o1
v1
n0.667
n2
o5
o1
v2
n4.783
n2
o5
o1
v3
n9.095
n2
o5
o1
v4
n3.517
n2
o5
o1
v5
n9.325
n2
o5
o1
v6
n6.544
n2
o5
o1
v7
n0.211
n2
o5
o1
v8
n5.122
n2
o5
o1
v9
n2.02
n2
n0.806
o3
n1
o54
11
o5
o1
v0
n9.4
n2
o5
o1
v1
n2.041
n2
o5
o1
v2
n3.788
n2
o5
o1
v3
n7.931
n2
o5
o1
v4
n2.882
n2
o5
o1
v5
n2.672
n2
o5
o1
v6
n3.568
n2
o5
o1
v7
n1.284
n2
o5
o1
v8
n7.033
n2
o5
o1
v9
n7.374
n2
n0.517
o3
n1
o54
11
o5
o1
v0
n8.025
n2
o5
o1
v1
n9.152
n2
o5
o1
v2
n5.114
n2
o5
o1
v3
n7.621
n2
o5
o1
v4
n4.564
n2
o5
o1
v5
n4.711
n2
o5
o1
v6
n2.996
n2
o5
o1
v7
n6.126
n2
o5
o1
v8
n0.734
n2
o5
o1
v9
n4.982
n2
n0.1
o3
n1
o54
11
o5
o1
v0
n2.196
n2
o5
o1
v1
n0.415
n2
o5
o1
v2
n5.649
n2
o5
o1
v3
n6.979
n2
o5
o1
v4
n9.51
n2
o5
o1
v5
n9.166
n2
o5
o1
v6
n6.304
n2
o5
o1
v7
n6.054
n2
o5
o1
v8
n9.377
n2
o5
o1
v9
n1.426
n2
n0.908
o3
n1
o54
11
o5
o1
v0
n8.074
n2
o5
o1
v1
n8.777
n2
o5
o1
v2
n3.467
n2
o5
o1
v3
n1.863
n2
o5
o1
v4
n6.708
n2
o5
o1
v5
n6.349
n2
o5
o1
v6
n4.534
n2
o5
o1
v7
n0.276
n2
o5
o1
v8
n7.633
n2
o5
o1
v9
n1.567
n2
n0.965
o3
n1
o54
11
o5
o1
v0
n7.65
n2
o5
o1
v1
n5.658
n2
o5
o1
v2
n0.72
n2
o5
o1
v3
n2.764
n2
o5
o1
v4
n3.278
n2
o5
o1
v5
n5.283
n2
o5
o1
v6
n7.474
n2
o5
o1
v7
n6.274
n2
o5
o1
v8
n1.409
n2
o5
o1
v9
n8.208
n2
n0.669
o3
n1
o54
11
o5
o1
v0
n1.256
n2
o5
o1
v1
n3.605
n2
o5
o1
v2
n8.623
n2
o5
o1
v3
n6.905
n2
o5
o1
v4
n4.584
n2
o5
o1
v5
n8.133
n2
o5
o1
v6
n6.071
n2
o5
o1
v7
n6.888
n2
o5
o1
v8
n4.187
n2
o5
o1
v9
n5.448
n2
n0.524
o3
n1
o54
11
o5
o1
v0
n8.314
n2
o5
o1
v1
n2.261
n2
o5
o1
v2
n4.224
n2
o5
o1
v3
n1.781
n2
o5
o1
v4
n4.124
n2
o5
o1
v5
n0.932
n2
o5
o1
v6
n8.129
n2
o5
o1
v7
n8.658
n2
o5
o1
v8
n1.208
n2
o5
o1
v9
n5.762
n2
n0.902
o3
n1
o54
11
o5
o1
v0
n0.226
n2
o5
o1
v1
n8.858
n2
o5
o1
v2
n1.42
n2
o5
o1
v3
n0.945
n2
o5
o1
v4
n1.622
n2
o5
o1
v5
n4.698
n2
o5
o1
v6
n6.228
n2
o5
o1
v7
n9.096
n2
o5
o1
v8
n0.972
n2
o5
o1
v9
n7.637
n2
n0.531
o3
n1
o54
11
o5
o1
v0
n7.305
n2
o5
o1
v1
n2.228
n2
o5
o1
v2
n1.242
n2
o5
o1
v3
n5.928
n2
o5
o1
v4
n9.133
n2
o5
o1
v5
n1.826
n2
o5
o1
v6
n4.06
n2
o5
o1
v7
n5.204
n2
o5
o1
v8
n8.713
n2
o5
o1
v9
n8.247
n2
n0.876
o3
n1
o54
11
o5
o1
v0
n0.652
n2
o5
o1
v1
n7.027
n2
o5
o1
v2
n0.508
n2
o5
o1
v3
n4.876
n2
o5
o1
v4
n8.807
n2
o5
o1
v5
n4.632
n2
o5
o1
v6
n5.808
n2
o5
o1
v7
n6.937
n2
o5
o1
v8
n3.291
n2
o5
o1
v9
n7.016
n2
n0.462
o3
n1
o54
11
o5
o1
v0
n2.699
n2
o5
o1
v1
n3.516
n2
o5
o1
v2
n5.874
n2
o5
o1
v3
n4.119
n2
o5
o1
v4
n4.461
n2
o5
o1
v5
n7.496
n2
o5
o1
v6
n8.817
n2
o5
o1
v7
n0.69
n2
o5
o1
v8
n6.593
n2
o5
o1
v9
n9.789
n2
n0.491
o3
n1
o54
11
o5
o1
v0
n8.327
n2
o5
o1
v1
n3.897
n2
o5
o1
v2
n2.017
n2
o5
o1
v3
n9.57
n2
o5
o1
v4
n9.825
n2
o5
o1
v5
n1.15
n2
o5
o1
v6
n1.395
n2
o5
o1
v7
n3.885
n2
o5
o1
v8
n6.354
n2
o5
o1
v9
n0.109
n2
n0.463
o3
n1
o54
11
o5
o1
v0
n2.132
n2
o5
o1
v1
n7.006
n2
o5
o1
v2
n7.136
n2
o5
o1
v3
n2.641
n2
o5
o1
v4
n1.882
n2
o5
o1
v5
n5.943
n2
o5
o1
v6
n7.273
n2
o5
o1
v7
n7.691
n2
o5
o1
v8
n2.88
n2
o5
o1
v9
n0.564
n2
n0.714
o3
n1
o54
11
o5
o1
v0
n4.707
n2
o5
o1
v1
n5.579
n2
o5
o1
v2
n4.08
n2
o5
o1
v3
n0.581
n2
o5
o1
v4
n9.698
n2
o5
o1
v5
n8.542
n2
o5
o1
v6
n8.077
n2
o5
o1
v7
n8.515
n2
o5
o1
v8
n9.231
n2
o5
o1
v9
n4.67
n2
n0.352
o3
n1
o54
11
o5
o1
v0
n8.304
n2
o5
o1
v1
n7.559
n2
o5
o1
v2
n8.567
n2
o5
o1
v3
n0.322
n2
o5
o1
v4
n7.128
n2
o5
o1
v5
n8.392
n2
o5
o1
v6
n1.472
n2
o5
o1
v7
n8.524
n2
o5
o1
v8
n2.277
n2
o5
o1
v9
n7.826
n2
n0.869
o3
n1
o54
11
o5
o1
v0
n8.632
n2
o5
o1
v1
n4.409
n2
o5
o1
v2
n4.832
n2
o5
o1
v3
n5.768
n2
o5
o1
v4
n7.05
n2
o5
o1
v5
n6.715
n2
o5
o1
v6
n1.711
n2
o5
o1
v7
n4.323
n2
o5
o1
v8
n4.405
n2
o5
o1
v9
n4.591
n2
n0.813
o3
n1
o54
11
o5
o1
v0
n4.887
n2
o5
o1
v1
n9.112
n2
o5
o1
v2
n0.17
n2
o5
o1
v3
n8.967
n2
o5
o1
v4
n9.693
n2
o5
o1
v5
n9.867
n2
o5
o1
v6
n7.508
n2
o5
o1
v7
n7.77
n2
o5
o1
v8
n8.382
n2
o5
o1
v9
n6.74
n2
n0.811
o3
n1
o54
11
o5
o1
v0
n2.44
n2
o5
o1
v1
n6.686
n2
o5
o1
v2
n4.299
n2
o5
o1
v3
n1.007
n2
o5
o1
v4
n7.008
n2
o5
o1
v5
n1.427
n2
o5
o1
v6
n9.398
n2
o5
o1
v7
n8.48
n2
o5
o1
v8
n9.95
n2
o5
o1
v9
n1.675
n2
n0.828
o3
n1
o54
11
o5
o1
v0
n6.306
n2
o5
o1
v1
n8.583
n2
o5
o1
v2
n6.084
n2
o5
o1
v3
n1.138
n2
o5
o1
v4
n4.35
n2
o5
o1
v5
n3.134
n2
o5
o1
v6
n7.853
n2
o5
o1
v7
n6.061
n2
o5
o1
v8
n7.457
n2
o5
o1
v9
n2.258
n2
n0.964
o3
n1
o54
11
o5
o1
v0
n0.652
n2
o5
o1
v1
n2.343
n2
o5
o1
v2
n1.37
n2
o5
o1
v3
n0.821
n2
o5
o1
v4
n1.31
n2
o5
o1
v5
n1.063
n2
o5
o1
v6
n0.689
n2
o5
o1
v7
n8.819
n2
o5
o1
v8
n8.833
n2
o5
o1
v9
n9.07
n2
n0.789
o3
n1
o54
11
o5
o1
v0
n5.558
n2
o5
o1
v1
n1.272
n2
o5
o1
v2
n5.756
n2
o5
o1
v3
n9.857
n2
o5
o1
v4
n2.279
n2
o5
o1
v5
n2.764
n2
o5
o1
v6
n1.284
n2
o5
o1
v7
n1.677
n2
o5
o1
v8
n1.244
n2
o5
o1
v9
n1.234
n2
n0.36
o3
n1
o54
11
o5
o1
v0
n3.352
n2
o5
o1
v1
n7.549
n2
o5
o1
v2
n9.817
n2
o5
o1
v3
n9.437
n2
o5
o1
v4
n8.687
n2
o5
o1
v5
n4.167
n2
o5
o1
v6
n2.57
n2
o5
o1
v7
n6.54
n2
o5
o1
v8
n0.228
n2
o5
o1
v9
n0.027
n2
n0.369
o3
n1
o54
11
o5
o1
v0
n8.798
n2
o5
o1
v1
n0.88
n2
o5
o1
v2
n2.37
n2
o5
o1
v3
n0.168
n2
o5
o1
v4
n1.701
n2
o5
o1
v5
n3.68
n2
o5
o1
v6
n1.231
n2
o5
o1
v7
n2.39
n2
o5
o1
v8
n2.499
n2
o5
o1
v9
n0.064
n2
n0.992
o3
n1
o54
11
o5
o1
v0
n1.46
n2
o5
o1
v1
n8.057
n2
o5
o1
v2
n1.336
n2
o5
o1
v3
n7.217
n2
o5
o1
v4
n7.914
n2
o5
o1
v5
n3.615
n2
o5
o1
v6
n9.981
n2
o5
o1
v7
n9.198
n2
o5
o1
v8
n5.292
n2
o5
o1
v9
n1.224
n2
n0.332
o3
n1
o54
11
o5
o1
v0
n0.432
n2
o5
o1
v1
n8.645
n2
o5
o1
v2
n8.774
n2
o5
o1
v3
n0.249
n2
o5
o1
v4
n8.081
n2
o5
o1
v5
n7.461
n2
o5
o1
v6
n4.416
n2
o5
o1
v7
n0.652
n2
o5
o1
v8
n4.002
n2
o5
o1
v9
n4.644
n2
n0.817
o3
n1
o54
11
o5
o1
v0
n0.679
n2
o5
o1
v1
n2.8
n2
o5
o1
v2
n5.523
n2
o5
o1
v3
n3.049
n2
o5
o1
v4
n2.968
n2
o5
o1
v5
n7.225
n2
o5
o1
v6
n6.73
n2
o5
o1
v7
n4.199
n2
o5
o1
v8
n9.614
n2
o5
o1
v9
n9.229
n2
n0.632
o3
n1
o54
11
o5
o1
v0
n4.263
n2
o5
o1
v1
n1.074
n2
o5
o1
v2
n7.286
n2
o5
o1
v3
n5.599
n2
o5
o1
v4
n8.291
n2
o5
o1
v5
n5.2
n2
o5
o1
v6
n9.214
n2
o5
o1
v7
n8.272
n2
o5
o1
v8
n4.398
n2
o5
o1
v9
n4.506
n2
n0.883
o3
n1
o54
11
o5
o1
v0
n9.496
n2
o5
o1
v1
n4.83
n2
o5
o1
v2
n3.15
n2
o5
o1
v3
n8.27
n2
o5
o1
v4
n5.079
n2
o5
o1
v5
n1.231
n2
o5
o1
v6
n5.731
n2
o5
o1
v7
n9.494
n2
o5
o1
v8
n1.883
n2
o5
o1
v9
n9.732
n2
n0.608
o3
n1
o54
11
o5
o1
v0
n4.138
n2
o5
o1
v1
n2.562
n2
o5
o1
v2
n2.532
n2
o5
o1
v3
n9.661
n2
o5
o1
v4
n5.611
n2
o5
o1
v5
n5.5
n2
o5
o1
v6
n6.886
n2
o5
o1
v7
n2.341
n2
o5
o1
v8
n9.699
n2
o5
o1
v9
n6.5
n2
n0.326
b
0 0 10
0 0 10
0 0 10
0 0 10
0 0 10
0 0 10
0 0 10
0 0 10
0 0 10
0 0 10
k9
0
0
0
0
0
0
0
0
0
G0 10
0 0
1 0
2 0
3 0
4 0
5 0
6 0
7 0
8 0
9 0
